;; ===================== PROJECTED CANON (QE) =====================
;; Each clause below is entailed by Proj = ∃W.F over the canonical vocabulary.
;; Units appear first for clarity; OR-clauses (SAT-filtered) follow.
;; ==================================================================

;; Unit Bool constraints (entailed)
(assert (not patient_has_diagnosis_of_acute_myocardial_infarction_inthehistory))
(assert (not patient_has_undergone_heart_valve_replacement_inthehistory))
(assert (not patient_has_undergone_transplantation_of_heart_inthehistory))
(assert (not patient_has_finding_of_cardiogenic_shock_now))
(assert (not patient_has_finding_of_sinus_rhythm_now))
(assert (not patient_has_diagnosis_of_disorder_of_lung_inthehistory))
(assert (not patient_is_pregnant_now))
(assert (not patient_can_undergo_cardiac_mri_now))
